100 100
23 42
26 33
39 28
41 25
14 9
21 11
24 41
43 25
7 9
39 47
16 33
22 3
8 18
24 4
36 2
48 22
45 31
37 6
23 43
30 40
16 29
15 15
15 6
13 35
25 1
28 42
20 33
15 23
6 43
24 50
7 40
43 18
6 37
44 27
16 50
46 25
41 32
2 40
25 35
24 9
7 48
35 1
39 35
27 41
45 35
28 48
21 42
41 32
22 6
12 5
7 12
21 7
15 29
15 18
44 44
22 18
28 31
32 31
24 44
18 2
22 9
22 8
16 41
12 3
10 19
30 21
16 48
1 27
38 39
25 5
44 32
46 36
33 8
31 25
41 33
32 49
9 45
1 20
4 26
19 26
35 7
43 15
37 5
21 26
7 40
19 44
5 1
40 17
45 3
37 50
32 15
24 5
10 49
37 37
15 26
13 44
1 34
42 13
18 29
17 1
